NAME : portcgen-22-3
COMMENT : portcgen N=22, seed=3
TYPE : TSP
DIMENSION : 22
EDGE_WEIGHT_TYPE : EUC_2D
NODE_COORD_SECTION
1 274905 126607
2 -94753 -226571
3 -140827 320791
4 -113091 349566
5 -222397 20390
6 109885 -262780
7 -27696 -287791
8 194791 222350
9 -181752 -289976
10 76784 -195954
11 -183010 -30827
12 171410 316374
13 70758 -26177
14 -301337 -334195
15 -57545 124985
16 116329 74929
17 543193 373395
18 23544 64686
19 129042 113604
20 -376827 -46545
21 -186353 260016
22 -91601 116742
